CPXPARAM_TimeLimit                               3600
CPXPARAM_Read_DataCheck                          1
Tried aggregator 1 time.
MIP Presolve eliminated 2487 rows and 0 columns.
MIP Presolve modified 4299 coefficients.
Reduced MIP has 118093 rows, 54451 columns, and 560786 nonzeros.
Reduced MIP has 2850 binaries, 0 generals, 0 SOSs, and 0 indicators.
Presolve time = 0.09 sec. (156.47 ticks)
Found incumbent of value 11121.000000 after 0.20 sec. (286.68 ticks)
Probing fixed 0 vars, tightened 2 bounds.
Probing time = 0.03 sec. (28.47 ticks)
Tried aggregator 1 time.
Reduced MIP has 118093 rows, 54451 columns, and 560786 nonzeros.
Reduced MIP has 2850 binaries, 0 generals, 0 SOSs, and 0 indicators.
Presolve time = 0.22 sec. (226.14 ticks)
Probing time = 0.03 sec. (23.99 ticks)
MIP emphasis: balance optimality and feasibility.
MIP search method: dynamic search.
Parallel mode: deterministic, using up to 8 threads.
Root relaxation solution time = 858.68 sec. (297640.29 ticks)

        Nodes                                         Cuts/
   Node  Left     Objective  IInf  Best Integer    Best Bound    ItCnt     Gap

*     0+    0                        11121.0000     1008.0000            90.94%
*     0+    0                        10938.0000     1008.0000            90.78%
      0     0     1008.0000  2525    10938.0000     1008.0000   284416   90.78%
      0     0     1014.4328  2701    10938.0000    Cuts: 1873   407791   90.73%
      0     0     1022.8213  2728    10938.0000    Cuts: 4370   608504   90.65%

Implied bound cuts applied:  424
Flow cuts applied:  546
Mixed integer rounding cuts applied:  4223
Gomory fractional cuts applied:  53

Root node processing (before b&c):
  Real time             = 3600.06 sec. (2342736.40 ticks)
Parallel b&c, 8 threads:
  Real time             =    0.00 sec. (0.00 ticks)
  Sync time (average)   =    0.00 sec.
  Wait time (average)   =    0.00 sec.
                          ------------
Total (root+branch&cut) = 3600.06 sec. (2342736.40 ticks)
